<number of tasks>
50

<cycle time>
1000

<order strength>
0.595


<task times>
1 145
2 156
3 265
4 168
5 143
6 136
7 207
8 88
9 29
10 144
11 279
12 82
13 35
14 201
15 222
16 219
17 112
18 219
19 175
20 34
21 318
22 245
23 379
24 210
25 30
26 183
27 120
28 172
29 109
30 62
31 33
32 202
33 167
34 91
35 152
36 102
37 219
38 192
39 120
40 160
41 32
42 141
43 128
44 54
45 321
46 178
47 247
48 189
49 180
50 146

<precedence relations>
1,3
1,4
1,9
1,12
2,5
2,6
2,7
2,8
3,10
3,21
4,32
5,12
5,13
6,10
6,11
6,17
6,19
6,21
7,12
8,10
8,11
8,12
9,25
10,14
10,16
11,20
11,46
12,15
12,16
12,18
12,19
12,20
12,21
13,14
13,17
13,19
13,21
14,22
14,23
15,23
15,33
16,22
16,23
17,22
17,23
18,26
20,27
20,47
21,22
21,35
22,25
22,26
22,39
23,24
24,28
24,29
24,31
25,46
25,50
26,27
26,29
27,31
27,33
28,30
28,34
28,35
29,30
29,32
29,40
30,37
30,38
30,48
31,41
32,36
32,45
34,42
35,39
36,42
37,41
37,43
37,44
38,45
39,40
39,44
41,49
42,46
42,48
42,49
43,45
43,47
43,50
44,46

<end>
